c *********************************
c * Circuit generated by BenCGen
c *
c * CarrySaveAdder_142_142_142_142_143
c *
c * Ports with 1 gate(s): 2
c * Ports with 2 gate(s): 711
c * Total gates: 713
c *********************************
p cnf 1139 2421
1 713 0
-1 -713 0
1 -712 0
713 -712 0
-1 -713 712 0
712 -569 0
-712 569 0
1 143 -714 0
-1 143 714 0
1 -143 714 0
-1 -143 -714 0
714 285 -427 0
-714 285 427 0
714 -285 427 0
-714 -285 -427 0
285 -715 0
714 -715 0
-285 -714 715 0
143 -716 0
1 -716 0
-143 -1 716 0
-715 570 0
-716 570 0
715 716 -570 0
2 144 -717 0
-2 144 717 0
2 -144 717 0
-2 -144 -717 0
717 286 -428 0
-717 286 428 0
717 -286 428 0
-717 -286 -428 0
286 -718 0
717 -718 0
-286 -717 718 0
144 -719 0
2 -719 0
-144 -2 719 0
-718 571 0
-719 571 0
718 719 -571 0
3 145 -720 0
-3 145 720 0
3 -145 720 0
-3 -145 -720 0
720 287 -429 0
-720 287 429 0
720 -287 429 0
-720 -287 -429 0
287 -721 0
720 -721 0
-287 -720 721 0
145 -722 0
3 -722 0
-145 -3 722 0
-721 572 0
-722 572 0
721 722 -572 0
4 146 -723 0
-4 146 723 0
4 -146 723 0
-4 -146 -723 0
723 288 -430 0
-723 288 430 0
723 -288 430 0
-723 -288 -430 0
288 -724 0
723 -724 0
-288 -723 724 0
146 -725 0
4 -725 0
-146 -4 725 0
-724 573 0
-725 573 0
724 725 -573 0
5 147 -726 0
-5 147 726 0
5 -147 726 0
-5 -147 -726 0
726 289 -431 0
-726 289 431 0
726 -289 431 0
-726 -289 -431 0
289 -727 0
726 -727 0
-289 -726 727 0
147 -728 0
5 -728 0
-147 -5 728 0
-727 574 0
-728 574 0
727 728 -574 0
6 148 -729 0
-6 148 729 0
6 -148 729 0
-6 -148 -729 0
729 290 -432 0
-729 290 432 0
729 -290 432 0
-729 -290 -432 0
290 -730 0
729 -730 0
-290 -729 730 0
148 -731 0
6 -731 0
-148 -6 731 0
-730 575 0
-731 575 0
730 731 -575 0
7 149 -732 0
-7 149 732 0
7 -149 732 0
-7 -149 -732 0
732 291 -433 0
-732 291 433 0
732 -291 433 0
-732 -291 -433 0
291 -733 0
732 -733 0
-291 -732 733 0
149 -734 0
7 -734 0
-149 -7 734 0
-733 576 0
-734 576 0
733 734 -576 0
8 150 -735 0
-8 150 735 0
8 -150 735 0
-8 -150 -735 0
735 292 -434 0
-735 292 434 0
735 -292 434 0
-735 -292 -434 0
292 -736 0
735 -736 0
-292 -735 736 0
150 -737 0
8 -737 0
-150 -8 737 0
-736 577 0
-737 577 0
736 737 -577 0
9 151 -738 0
-9 151 738 0
9 -151 738 0
-9 -151 -738 0
738 293 -435 0
-738 293 435 0
738 -293 435 0
-738 -293 -435 0
293 -739 0
738 -739 0
-293 -738 739 0
151 -740 0
9 -740 0
-151 -9 740 0
-739 578 0
-740 578 0
739 740 -578 0
10 152 -741 0
-10 152 741 0
10 -152 741 0
-10 -152 -741 0
741 294 -436 0
-741 294 436 0
741 -294 436 0
-741 -294 -436 0
294 -742 0
741 -742 0
-294 -741 742 0
152 -743 0
10 -743 0
-152 -10 743 0
-742 579 0
-743 579 0
742 743 -579 0
11 153 -744 0
-11 153 744 0
11 -153 744 0
-11 -153 -744 0
744 295 -437 0
-744 295 437 0
744 -295 437 0
-744 -295 -437 0
295 -745 0
744 -745 0
-295 -744 745 0
153 -746 0
11 -746 0
-153 -11 746 0
-745 580 0
-746 580 0
745 746 -580 0
12 154 -747 0
-12 154 747 0
12 -154 747 0
-12 -154 -747 0
747 296 -438 0
-747 296 438 0
747 -296 438 0
-747 -296 -438 0
296 -748 0
747 -748 0
-296 -747 748 0
154 -749 0
12 -749 0
-154 -12 749 0
-748 581 0
-749 581 0
748 749 -581 0
13 155 -750 0
-13 155 750 0
13 -155 750 0
-13 -155 -750 0
750 297 -439 0
-750 297 439 0
750 -297 439 0
-750 -297 -439 0
297 -751 0
750 -751 0
-297 -750 751 0
155 -752 0
13 -752 0
-155 -13 752 0
-751 582 0
-752 582 0
751 752 -582 0
14 156 -753 0
-14 156 753 0
14 -156 753 0
-14 -156 -753 0
753 298 -440 0
-753 298 440 0
753 -298 440 0
-753 -298 -440 0
298 -754 0
753 -754 0
-298 -753 754 0
156 -755 0
14 -755 0
-156 -14 755 0
-754 583 0
-755 583 0
754 755 -583 0
15 157 -756 0
-15 157 756 0
15 -157 756 0
-15 -157 -756 0
756 299 -441 0
-756 299 441 0
756 -299 441 0
-756 -299 -441 0
299 -757 0
756 -757 0
-299 -756 757 0
157 -758 0
15 -758 0
-157 -15 758 0
-757 584 0
-758 584 0
757 758 -584 0
16 158 -759 0
-16 158 759 0
16 -158 759 0
-16 -158 -759 0
759 300 -442 0
-759 300 442 0
759 -300 442 0
-759 -300 -442 0
300 -760 0
759 -760 0
-300 -759 760 0
158 -761 0
16 -761 0
-158 -16 761 0
-760 585 0
-761 585 0
760 761 -585 0
17 159 -762 0
-17 159 762 0
17 -159 762 0
-17 -159 -762 0
762 301 -443 0
-762 301 443 0
762 -301 443 0
-762 -301 -443 0
301 -763 0
762 -763 0
-301 -762 763 0
159 -764 0
17 -764 0
-159 -17 764 0
-763 586 0
-764 586 0
763 764 -586 0
18 160 -765 0
-18 160 765 0
18 -160 765 0
-18 -160 -765 0
765 302 -444 0
-765 302 444 0
765 -302 444 0
-765 -302 -444 0
302 -766 0
765 -766 0
-302 -765 766 0
160 -767 0
18 -767 0
-160 -18 767 0
-766 587 0
-767 587 0
766 767 -587 0
19 161 -768 0
-19 161 768 0
19 -161 768 0
-19 -161 -768 0
768 303 -445 0
-768 303 445 0
768 -303 445 0
-768 -303 -445 0
303 -769 0
768 -769 0
-303 -768 769 0
161 -770 0
19 -770 0
-161 -19 770 0
-769 588 0
-770 588 0
769 770 -588 0
20 162 -771 0
-20 162 771 0
20 -162 771 0
-20 -162 -771 0
771 304 -446 0
-771 304 446 0
771 -304 446 0
-771 -304 -446 0
304 -772 0
771 -772 0
-304 -771 772 0
162 -773 0
20 -773 0
-162 -20 773 0
-772 589 0
-773 589 0
772 773 -589 0
21 163 -774 0
-21 163 774 0
21 -163 774 0
-21 -163 -774 0
774 305 -447 0
-774 305 447 0
774 -305 447 0
-774 -305 -447 0
305 -775 0
774 -775 0
-305 -774 775 0
163 -776 0
21 -776 0
-163 -21 776 0
-775 590 0
-776 590 0
775 776 -590 0
22 164 -777 0
-22 164 777 0
22 -164 777 0
-22 -164 -777 0
777 306 -448 0
-777 306 448 0
777 -306 448 0
-777 -306 -448 0
306 -778 0
777 -778 0
-306 -777 778 0
164 -779 0
22 -779 0
-164 -22 779 0
-778 591 0
-779 591 0
778 779 -591 0
23 165 -780 0
-23 165 780 0
23 -165 780 0
-23 -165 -780 0
780 307 -449 0
-780 307 449 0
780 -307 449 0
-780 -307 -449 0
307 -781 0
780 -781 0
-307 -780 781 0
165 -782 0
23 -782 0
-165 -23 782 0
-781 592 0
-782 592 0
781 782 -592 0
24 166 -783 0
-24 166 783 0
24 -166 783 0
-24 -166 -783 0
783 308 -450 0
-783 308 450 0
783 -308 450 0
-783 -308 -450 0
308 -784 0
783 -784 0
-308 -783 784 0
166 -785 0
24 -785 0
-166 -24 785 0
-784 593 0
-785 593 0
784 785 -593 0
25 167 -786 0
-25 167 786 0
25 -167 786 0
-25 -167 -786 0
786 309 -451 0
-786 309 451 0
786 -309 451 0
-786 -309 -451 0
309 -787 0
786 -787 0
-309 -786 787 0
167 -788 0
25 -788 0
-167 -25 788 0
-787 594 0
-788 594 0
787 788 -594 0
26 168 -789 0
-26 168 789 0
26 -168 789 0
-26 -168 -789 0
789 310 -452 0
-789 310 452 0
789 -310 452 0
-789 -310 -452 0
310 -790 0
789 -790 0
-310 -789 790 0
168 -791 0
26 -791 0
-168 -26 791 0
-790 595 0
-791 595 0
790 791 -595 0
27 169 -792 0
-27 169 792 0
27 -169 792 0
-27 -169 -792 0
792 311 -453 0
-792 311 453 0
792 -311 453 0
-792 -311 -453 0
311 -793 0
792 -793 0
-311 -792 793 0
169 -794 0
27 -794 0
-169 -27 794 0
-793 596 0
-794 596 0
793 794 -596 0
28 170 -795 0
-28 170 795 0
28 -170 795 0
-28 -170 -795 0
795 312 -454 0
-795 312 454 0
795 -312 454 0
-795 -312 -454 0
312 -796 0
795 -796 0
-312 -795 796 0
170 -797 0
28 -797 0
-170 -28 797 0
-796 597 0
-797 597 0
796 797 -597 0
29 171 -798 0
-29 171 798 0
29 -171 798 0
-29 -171 -798 0
798 313 -455 0
-798 313 455 0
798 -313 455 0
-798 -313 -455 0
313 -799 0
798 -799 0
-313 -798 799 0
171 -800 0
29 -800 0
-171 -29 800 0
-799 598 0
-800 598 0
799 800 -598 0
30 172 -801 0
-30 172 801 0
30 -172 801 0
-30 -172 -801 0
801 314 -456 0
-801 314 456 0
801 -314 456 0
-801 -314 -456 0
314 -802 0
801 -802 0
-314 -801 802 0
172 -803 0
30 -803 0
-172 -30 803 0
-802 599 0
-803 599 0
802 803 -599 0
31 173 -804 0
-31 173 804 0
31 -173 804 0
-31 -173 -804 0
804 315 -457 0
-804 315 457 0
804 -315 457 0
-804 -315 -457 0
315 -805 0
804 -805 0
-315 -804 805 0
173 -806 0
31 -806 0
-173 -31 806 0
-805 600 0
-806 600 0
805 806 -600 0
32 174 -807 0
-32 174 807 0
32 -174 807 0
-32 -174 -807 0
807 316 -458 0
-807 316 458 0
807 -316 458 0
-807 -316 -458 0
316 -808 0
807 -808 0
-316 -807 808 0
174 -809 0
32 -809 0
-174 -32 809 0
-808 601 0
-809 601 0
808 809 -601 0
33 175 -810 0
-33 175 810 0
33 -175 810 0
-33 -175 -810 0
810 317 -459 0
-810 317 459 0
810 -317 459 0
-810 -317 -459 0
317 -811 0
810 -811 0
-317 -810 811 0
175 -812 0
33 -812 0
-175 -33 812 0
-811 602 0
-812 602 0
811 812 -602 0
34 176 -813 0
-34 176 813 0
34 -176 813 0
-34 -176 -813 0
813 318 -460 0
-813 318 460 0
813 -318 460 0
-813 -318 -460 0
318 -814 0
813 -814 0
-318 -813 814 0
176 -815 0
34 -815 0
-176 -34 815 0
-814 603 0
-815 603 0
814 815 -603 0
35 177 -816 0
-35 177 816 0
35 -177 816 0
-35 -177 -816 0
816 319 -461 0
-816 319 461 0
816 -319 461 0
-816 -319 -461 0
319 -817 0
816 -817 0
-319 -816 817 0
177 -818 0
35 -818 0
-177 -35 818 0
-817 604 0
-818 604 0
817 818 -604 0
36 178 -819 0
-36 178 819 0
36 -178 819 0
-36 -178 -819 0
819 320 -462 0
-819 320 462 0
819 -320 462 0
-819 -320 -462 0
320 -820 0
819 -820 0
-320 -819 820 0
178 -821 0
36 -821 0
-178 -36 821 0
-820 605 0
-821 605 0
820 821 -605 0
37 179 -822 0
-37 179 822 0
37 -179 822 0
-37 -179 -822 0
822 321 -463 0
-822 321 463 0
822 -321 463 0
-822 -321 -463 0
321 -823 0
822 -823 0
-321 -822 823 0
179 -824 0
37 -824 0
-179 -37 824 0
-823 606 0
-824 606 0
823 824 -606 0
38 180 -825 0
-38 180 825 0
38 -180 825 0
-38 -180 -825 0
825 322 -464 0
-825 322 464 0
825 -322 464 0
-825 -322 -464 0
322 -826 0
825 -826 0
-322 -825 826 0
180 -827 0
38 -827 0
-180 -38 827 0
-826 607 0
-827 607 0
826 827 -607 0
39 181 -828 0
-39 181 828 0
39 -181 828 0
-39 -181 -828 0
828 323 -465 0
-828 323 465 0
828 -323 465 0
-828 -323 -465 0
323 -829 0
828 -829 0
-323 -828 829 0
181 -830 0
39 -830 0
-181 -39 830 0
-829 608 0
-830 608 0
829 830 -608 0
40 182 -831 0
-40 182 831 0
40 -182 831 0
-40 -182 -831 0
831 324 -466 0
-831 324 466 0
831 -324 466 0
-831 -324 -466 0
324 -832 0
831 -832 0
-324 -831 832 0
182 -833 0
40 -833 0
-182 -40 833 0
-832 609 0
-833 609 0
832 833 -609 0
41 183 -834 0
-41 183 834 0
41 -183 834 0
-41 -183 -834 0
834 325 -467 0
-834 325 467 0
834 -325 467 0
-834 -325 -467 0
325 -835 0
834 -835 0
-325 -834 835 0
183 -836 0
41 -836 0
-183 -41 836 0
-835 610 0
-836 610 0
835 836 -610 0
42 184 -837 0
-42 184 837 0
42 -184 837 0
-42 -184 -837 0
837 326 -468 0
-837 326 468 0
837 -326 468 0
-837 -326 -468 0
326 -838 0
837 -838 0
-326 -837 838 0
184 -839 0
42 -839 0
-184 -42 839 0
-838 611 0
-839 611 0
838 839 -611 0
43 185 -840 0
-43 185 840 0
43 -185 840 0
-43 -185 -840 0
840 327 -469 0
-840 327 469 0
840 -327 469 0
-840 -327 -469 0
327 -841 0
840 -841 0
-327 -840 841 0
185 -842 0
43 -842 0
-185 -43 842 0
-841 612 0
-842 612 0
841 842 -612 0
44 186 -843 0
-44 186 843 0
44 -186 843 0
-44 -186 -843 0
843 328 -470 0
-843 328 470 0
843 -328 470 0
-843 -328 -470 0
328 -844 0
843 -844 0
-328 -843 844 0
186 -845 0
44 -845 0
-186 -44 845 0
-844 613 0
-845 613 0
844 845 -613 0
45 187 -846 0
-45 187 846 0
45 -187 846 0
-45 -187 -846 0
846 329 -471 0
-846 329 471 0
846 -329 471 0
-846 -329 -471 0
329 -847 0
846 -847 0
-329 -846 847 0
187 -848 0
45 -848 0
-187 -45 848 0
-847 614 0
-848 614 0
847 848 -614 0
46 188 -849 0
-46 188 849 0
46 -188 849 0
-46 -188 -849 0
849 330 -472 0
-849 330 472 0
849 -330 472 0
-849 -330 -472 0
330 -850 0
849 -850 0
-330 -849 850 0
188 -851 0
46 -851 0
-188 -46 851 0
-850 615 0
-851 615 0
850 851 -615 0
47 189 -852 0
-47 189 852 0
47 -189 852 0
-47 -189 -852 0
852 331 -473 0
-852 331 473 0
852 -331 473 0
-852 -331 -473 0
331 -853 0
852 -853 0
-331 -852 853 0
189 -854 0
47 -854 0
-189 -47 854 0
-853 616 0
-854 616 0
853 854 -616 0
48 190 -855 0
-48 190 855 0
48 -190 855 0
-48 -190 -855 0
855 332 -474 0
-855 332 474 0
855 -332 474 0
-855 -332 -474 0
332 -856 0
855 -856 0
-332 -855 856 0
190 -857 0
48 -857 0
-190 -48 857 0
-856 617 0
-857 617 0
856 857 -617 0
49 191 -858 0
-49 191 858 0
49 -191 858 0
-49 -191 -858 0
858 333 -475 0
-858 333 475 0
858 -333 475 0
-858 -333 -475 0
333 -859 0
858 -859 0
-333 -858 859 0
191 -860 0
49 -860 0
-191 -49 860 0
-859 618 0
-860 618 0
859 860 -618 0
50 192 -861 0
-50 192 861 0
50 -192 861 0
-50 -192 -861 0
861 334 -476 0
-861 334 476 0
861 -334 476 0
-861 -334 -476 0
334 -862 0
861 -862 0
-334 -861 862 0
192 -863 0
50 -863 0
-192 -50 863 0
-862 619 0
-863 619 0
862 863 -619 0
51 193 -864 0
-51 193 864 0
51 -193 864 0
-51 -193 -864 0
864 335 -477 0
-864 335 477 0
864 -335 477 0
-864 -335 -477 0
335 -865 0
864 -865 0
-335 -864 865 0
193 -866 0
51 -866 0
-193 -51 866 0
-865 620 0
-866 620 0
865 866 -620 0
52 194 -867 0
-52 194 867 0
52 -194 867 0
-52 -194 -867 0
867 336 -478 0
-867 336 478 0
867 -336 478 0
-867 -336 -478 0
336 -868 0
867 -868 0
-336 -867 868 0
194 -869 0
52 -869 0
-194 -52 869 0
-868 621 0
-869 621 0
868 869 -621 0
53 195 -870 0
-53 195 870 0
53 -195 870 0
-53 -195 -870 0
870 337 -479 0
-870 337 479 0
870 -337 479 0
-870 -337 -479 0
337 -871 0
870 -871 0
-337 -870 871 0
195 -872 0
53 -872 0
-195 -53 872 0
-871 622 0
-872 622 0
871 872 -622 0
54 196 -873 0
-54 196 873 0
54 -196 873 0
-54 -196 -873 0
873 338 -480 0
-873 338 480 0
873 -338 480 0
-873 -338 -480 0
338 -874 0
873 -874 0
-338 -873 874 0
196 -875 0
54 -875 0
-196 -54 875 0
-874 623 0
-875 623 0
874 875 -623 0
55 197 -876 0
-55 197 876 0
55 -197 876 0
-55 -197 -876 0
876 339 -481 0
-876 339 481 0
876 -339 481 0
-876 -339 -481 0
339 -877 0
876 -877 0
-339 -876 877 0
197 -878 0
55 -878 0
-197 -55 878 0
-877 624 0
-878 624 0
877 878 -624 0
56 198 -879 0
-56 198 879 0
56 -198 879 0
-56 -198 -879 0
879 340 -482 0
-879 340 482 0
879 -340 482 0
-879 -340 -482 0
340 -880 0
879 -880 0
-340 -879 880 0
198 -881 0
56 -881 0
-198 -56 881 0
-880 625 0
-881 625 0
880 881 -625 0
57 199 -882 0
-57 199 882 0
57 -199 882 0
-57 -199 -882 0
882 341 -483 0
-882 341 483 0
882 -341 483 0
-882 -341 -483 0
341 -883 0
882 -883 0
-341 -882 883 0
199 -884 0
57 -884 0
-199 -57 884 0
-883 626 0
-884 626 0
883 884 -626 0
58 200 -885 0
-58 200 885 0
58 -200 885 0
-58 -200 -885 0
885 342 -484 0
-885 342 484 0
885 -342 484 0
-885 -342 -484 0
342 -886 0
885 -886 0
-342 -885 886 0
200 -887 0
58 -887 0
-200 -58 887 0
-886 627 0
-887 627 0
886 887 -627 0
59 201 -888 0
-59 201 888 0
59 -201 888 0
-59 -201 -888 0
888 343 -485 0
-888 343 485 0
888 -343 485 0
-888 -343 -485 0
343 -889 0
888 -889 0
-343 -888 889 0
201 -890 0
59 -890 0
-201 -59 890 0
-889 628 0
-890 628 0
889 890 -628 0
60 202 -891 0
-60 202 891 0
60 -202 891 0
-60 -202 -891 0
891 344 -486 0
-891 344 486 0
891 -344 486 0
-891 -344 -486 0
344 -892 0
891 -892 0
-344 -891 892 0
202 -893 0
60 -893 0
-202 -60 893 0
-892 629 0
-893 629 0
892 893 -629 0
61 203 -894 0
-61 203 894 0
61 -203 894 0
-61 -203 -894 0
894 345 -487 0
-894 345 487 0
894 -345 487 0
-894 -345 -487 0
345 -895 0
894 -895 0
-345 -894 895 0
203 -896 0
61 -896 0
-203 -61 896 0
-895 630 0
-896 630 0
895 896 -630 0
62 204 -897 0
-62 204 897 0
62 -204 897 0
-62 -204 -897 0
897 346 -488 0
-897 346 488 0
897 -346 488 0
-897 -346 -488 0
346 -898 0
897 -898 0
-346 -897 898 0
204 -899 0
62 -899 0
-204 -62 899 0
-898 631 0
-899 631 0
898 899 -631 0
63 205 -900 0
-63 205 900 0
63 -205 900 0
-63 -205 -900 0
900 347 -489 0
-900 347 489 0
900 -347 489 0
-900 -347 -489 0
347 -901 0
900 -901 0
-347 -900 901 0
205 -902 0
63 -902 0
-205 -63 902 0
-901 632 0
-902 632 0
901 902 -632 0
64 206 -903 0
-64 206 903 0
64 -206 903 0
-64 -206 -903 0
903 348 -490 0
-903 348 490 0
903 -348 490 0
-903 -348 -490 0
348 -904 0
903 -904 0
-348 -903 904 0
206 -905 0
64 -905 0
-206 -64 905 0
-904 633 0
-905 633 0
904 905 -633 0
65 207 -906 0
-65 207 906 0
65 -207 906 0
-65 -207 -906 0
906 349 -491 0
-906 349 491 0
906 -349 491 0
-906 -349 -491 0
349 -907 0
906 -907 0
-349 -906 907 0
207 -908 0
65 -908 0
-207 -65 908 0
-907 634 0
-908 634 0
907 908 -634 0
66 208 -909 0
-66 208 909 0
66 -208 909 0
-66 -208 -909 0
909 350 -492 0
-909 350 492 0
909 -350 492 0
-909 -350 -492 0
350 -910 0
909 -910 0
-350 -909 910 0
208 -911 0
66 -911 0
-208 -66 911 0
-910 635 0
-911 635 0
910 911 -635 0
67 209 -912 0
-67 209 912 0
67 -209 912 0
-67 -209 -912 0
912 351 -493 0
-912 351 493 0
912 -351 493 0
-912 -351 -493 0
351 -913 0
912 -913 0
-351 -912 913 0
209 -914 0
67 -914 0
-209 -67 914 0
-913 636 0
-914 636 0
913 914 -636 0
68 210 -915 0
-68 210 915 0
68 -210 915 0
-68 -210 -915 0
915 352 -494 0
-915 352 494 0
915 -352 494 0
-915 -352 -494 0
352 -916 0
915 -916 0
-352 -915 916 0
210 -917 0
68 -917 0
-210 -68 917 0
-916 637 0
-917 637 0
916 917 -637 0
69 211 -918 0
-69 211 918 0
69 -211 918 0
-69 -211 -918 0
918 353 -495 0
-918 353 495 0
918 -353 495 0
-918 -353 -495 0
353 -919 0
918 -919 0
-353 -918 919 0
211 -920 0
69 -920 0
-211 -69 920 0
-919 638 0
-920 638 0
919 920 -638 0
70 212 -921 0
-70 212 921 0
70 -212 921 0
-70 -212 -921 0
921 354 -496 0
-921 354 496 0
921 -354 496 0
-921 -354 -496 0
354 -922 0
921 -922 0
-354 -921 922 0
212 -923 0
70 -923 0
-212 -70 923 0
-922 639 0
-923 639 0
922 923 -639 0
71 213 -924 0
-71 213 924 0
71 -213 924 0
-71 -213 -924 0
924 355 -497 0
-924 355 497 0
924 -355 497 0
-924 -355 -497 0
355 -925 0
924 -925 0
-355 -924 925 0
213 -926 0
71 -926 0
-213 -71 926 0
-925 640 0
-926 640 0
925 926 -640 0
72 214 -927 0
-72 214 927 0
72 -214 927 0
-72 -214 -927 0
927 356 -498 0
-927 356 498 0
927 -356 498 0
-927 -356 -498 0
356 -928 0
927 -928 0
-356 -927 928 0
214 -929 0
72 -929 0
-214 -72 929 0
-928 641 0
-929 641 0
928 929 -641 0
73 215 -930 0
-73 215 930 0
73 -215 930 0
-73 -215 -930 0
930 357 -499 0
-930 357 499 0
930 -357 499 0
-930 -357 -499 0
357 -931 0
930 -931 0
-357 -930 931 0
215 -932 0
73 -932 0
-215 -73 932 0
-931 642 0
-932 642 0
931 932 -642 0
74 216 -933 0
-74 216 933 0
74 -216 933 0
-74 -216 -933 0
933 358 -500 0
-933 358 500 0
933 -358 500 0
-933 -358 -500 0
358 -934 0
933 -934 0
-358 -933 934 0
216 -935 0
74 -935 0
-216 -74 935 0
-934 643 0
-935 643 0
934 935 -643 0
75 217 -936 0
-75 217 936 0
75 -217 936 0
-75 -217 -936 0
936 359 -501 0
-936 359 501 0
936 -359 501 0
-936 -359 -501 0
359 -937 0
936 -937 0
-359 -936 937 0
217 -938 0
75 -938 0
-217 -75 938 0
-937 644 0
-938 644 0
937 938 -644 0
76 218 -939 0
-76 218 939 0
76 -218 939 0
-76 -218 -939 0
939 360 -502 0
-939 360 502 0
939 -360 502 0
-939 -360 -502 0
360 -940 0
939 -940 0
-360 -939 940 0
218 -941 0
76 -941 0
-218 -76 941 0
-940 645 0
-941 645 0
940 941 -645 0
77 219 -942 0
-77 219 942 0
77 -219 942 0
-77 -219 -942 0
942 361 -503 0
-942 361 503 0
942 -361 503 0
-942 -361 -503 0
361 -943 0
942 -943 0
-361 -942 943 0
219 -944 0
77 -944 0
-219 -77 944 0
-943 646 0
-944 646 0
943 944 -646 0
78 220 -945 0
-78 220 945 0
78 -220 945 0
-78 -220 -945 0
945 362 -504 0
-945 362 504 0
945 -362 504 0
-945 -362 -504 0
362 -946 0
945 -946 0
-362 -945 946 0
220 -947 0
78 -947 0
-220 -78 947 0
-946 647 0
-947 647 0
946 947 -647 0
79 221 -948 0
-79 221 948 0
79 -221 948 0
-79 -221 -948 0
948 363 -505 0
-948 363 505 0
948 -363 505 0
-948 -363 -505 0
363 -949 0
948 -949 0
-363 -948 949 0
221 -950 0
79 -950 0
-221 -79 950 0
-949 648 0
-950 648 0
949 950 -648 0
80 222 -951 0
-80 222 951 0
80 -222 951 0
-80 -222 -951 0
951 364 -506 0
-951 364 506 0
951 -364 506 0
-951 -364 -506 0
364 -952 0
951 -952 0
-364 -951 952 0
222 -953 0
80 -953 0
-222 -80 953 0
-952 649 0
-953 649 0
952 953 -649 0
81 223 -954 0
-81 223 954 0
81 -223 954 0
-81 -223 -954 0
954 365 -507 0
-954 365 507 0
954 -365 507 0
-954 -365 -507 0
365 -955 0
954 -955 0
-365 -954 955 0
223 -956 0
81 -956 0
-223 -81 956 0
-955 650 0
-956 650 0
955 956 -650 0
82 224 -957 0
-82 224 957 0
82 -224 957 0
-82 -224 -957 0
957 366 -508 0
-957 366 508 0
957 -366 508 0
-957 -366 -508 0
366 -958 0
957 -958 0
-366 -957 958 0
224 -959 0
82 -959 0
-224 -82 959 0
-958 651 0
-959 651 0
958 959 -651 0
83 225 -960 0
-83 225 960 0
83 -225 960 0
-83 -225 -960 0
960 367 -509 0
-960 367 509 0
960 -367 509 0
-960 -367 -509 0
367 -961 0
960 -961 0
-367 -960 961 0
225 -962 0
83 -962 0
-225 -83 962 0
-961 652 0
-962 652 0
961 962 -652 0
84 226 -963 0
-84 226 963 0
84 -226 963 0
-84 -226 -963 0
963 368 -510 0
-963 368 510 0
963 -368 510 0
-963 -368 -510 0
368 -964 0
963 -964 0
-368 -963 964 0
226 -965 0
84 -965 0
-226 -84 965 0
-964 653 0
-965 653 0
964 965 -653 0
85 227 -966 0
-85 227 966 0
85 -227 966 0
-85 -227 -966 0
966 369 -511 0
-966 369 511 0
966 -369 511 0
-966 -369 -511 0
369 -967 0
966 -967 0
-369 -966 967 0
227 -968 0
85 -968 0
-227 -85 968 0
-967 654 0
-968 654 0
967 968 -654 0
86 228 -969 0
-86 228 969 0
86 -228 969 0
-86 -228 -969 0
969 370 -512 0
-969 370 512 0
969 -370 512 0
-969 -370 -512 0
370 -970 0
969 -970 0
-370 -969 970 0
228 -971 0
86 -971 0
-228 -86 971 0
-970 655 0
-971 655 0
970 971 -655 0
87 229 -972 0
-87 229 972 0
87 -229 972 0
-87 -229 -972 0
972 371 -513 0
-972 371 513 0
972 -371 513 0
-972 -371 -513 0
371 -973 0
972 -973 0
-371 -972 973 0
229 -974 0
87 -974 0
-229 -87 974 0
-973 656 0
-974 656 0
973 974 -656 0
88 230 -975 0
-88 230 975 0
88 -230 975 0
-88 -230 -975 0
975 372 -514 0
-975 372 514 0
975 -372 514 0
-975 -372 -514 0
372 -976 0
975 -976 0
-372 -975 976 0
230 -977 0
88 -977 0
-230 -88 977 0
-976 657 0
-977 657 0
976 977 -657 0
89 231 -978 0
-89 231 978 0
89 -231 978 0
-89 -231 -978 0
978 373 -515 0
-978 373 515 0
978 -373 515 0
-978 -373 -515 0
373 -979 0
978 -979 0
-373 -978 979 0
231 -980 0
89 -980 0
-231 -89 980 0
-979 658 0
-980 658 0
979 980 -658 0
90 232 -981 0
-90 232 981 0
90 -232 981 0
-90 -232 -981 0
981 374 -516 0
-981 374 516 0
981 -374 516 0
-981 -374 -516 0
374 -982 0
981 -982 0
-374 -981 982 0
232 -983 0
90 -983 0
-232 -90 983 0
-982 659 0
-983 659 0
982 983 -659 0
91 233 -984 0
-91 233 984 0
91 -233 984 0
-91 -233 -984 0
984 375 -517 0
-984 375 517 0
984 -375 517 0
-984 -375 -517 0
375 -985 0
984 -985 0
-375 -984 985 0
233 -986 0
91 -986 0
-233 -91 986 0
-985 660 0
-986 660 0
985 986 -660 0
92 234 -987 0
-92 234 987 0
92 -234 987 0
-92 -234 -987 0
987 376 -518 0
-987 376 518 0
987 -376 518 0
-987 -376 -518 0
376 -988 0
987 -988 0
-376 -987 988 0
234 -989 0
92 -989 0
-234 -92 989 0
-988 661 0
-989 661 0
988 989 -661 0
93 235 -990 0
-93 235 990 0
93 -235 990 0
-93 -235 -990 0
990 377 -519 0
-990 377 519 0
990 -377 519 0
-990 -377 -519 0
377 -991 0
990 -991 0
-377 -990 991 0
235 -992 0
93 -992 0
-235 -93 992 0
-991 662 0
-992 662 0
991 992 -662 0
94 236 -993 0
-94 236 993 0
94 -236 993 0
-94 -236 -993 0
993 378 -520 0
-993 378 520 0
993 -378 520 0
-993 -378 -520 0
378 -994 0
993 -994 0
-378 -993 994 0
236 -995 0
94 -995 0
-236 -94 995 0
-994 663 0
-995 663 0
994 995 -663 0
95 237 -996 0
-95 237 996 0
95 -237 996 0
-95 -237 -996 0
996 379 -521 0
-996 379 521 0
996 -379 521 0
-996 -379 -521 0
379 -997 0
996 -997 0
-379 -996 997 0
237 -998 0
95 -998 0
-237 -95 998 0
-997 664 0
-998 664 0
997 998 -664 0
96 238 -999 0
-96 238 999 0
96 -238 999 0
-96 -238 -999 0
999 380 -522 0
-999 380 522 0
999 -380 522 0
-999 -380 -522 0
380 -1000 0
999 -1000 0
-380 -999 1000 0
238 -1001 0
96 -1001 0
-238 -96 1001 0
-1000 665 0
-1001 665 0
1000 1001 -665 0
97 239 -1002 0
-97 239 1002 0
97 -239 1002 0
-97 -239 -1002 0
1002 381 -523 0
-1002 381 523 0
1002 -381 523 0
-1002 -381 -523 0
381 -1003 0
1002 -1003 0
-381 -1002 1003 0
239 -1004 0
97 -1004 0
-239 -97 1004 0
-1003 666 0
-1004 666 0
1003 1004 -666 0
98 240 -1005 0
-98 240 1005 0
98 -240 1005 0
-98 -240 -1005 0
1005 382 -524 0
-1005 382 524 0
1005 -382 524 0
-1005 -382 -524 0
382 -1006 0
1005 -1006 0
-382 -1005 1006 0
240 -1007 0
98 -1007 0
-240 -98 1007 0
-1006 667 0
-1007 667 0
1006 1007 -667 0
99 241 -1008 0
-99 241 1008 0
99 -241 1008 0
-99 -241 -1008 0
1008 383 -525 0
-1008 383 525 0
1008 -383 525 0
-1008 -383 -525 0
383 -1009 0
1008 -1009 0
-383 -1008 1009 0
241 -1010 0
99 -1010 0
-241 -99 1010 0
-1009 668 0
-1010 668 0
1009 1010 -668 0
100 242 -1011 0
-100 242 1011 0
100 -242 1011 0
-100 -242 -1011 0
1011 384 -526 0
-1011 384 526 0
1011 -384 526 0
-1011 -384 -526 0
384 -1012 0
1011 -1012 0
-384 -1011 1012 0
242 -1013 0
100 -1013 0
-242 -100 1013 0
-1012 669 0
-1013 669 0
1012 1013 -669 0
101 243 -1014 0
-101 243 1014 0
101 -243 1014 0
-101 -243 -1014 0
1014 385 -527 0
-1014 385 527 0
1014 -385 527 0
-1014 -385 -527 0
385 -1015 0
1014 -1015 0
-385 -1014 1015 0
243 -1016 0
101 -1016 0
-243 -101 1016 0
-1015 670 0
-1016 670 0
1015 1016 -670 0
102 244 -1017 0
-102 244 1017 0
102 -244 1017 0
-102 -244 -1017 0
1017 386 -528 0
-1017 386 528 0
1017 -386 528 0
-1017 -386 -528 0
386 -1018 0
1017 -1018 0
-386 -1017 1018 0
244 -1019 0
102 -1019 0
-244 -102 1019 0
-1018 671 0
-1019 671 0
1018 1019 -671 0
103 245 -1020 0
-103 245 1020 0
103 -245 1020 0
-103 -245 -1020 0
1020 387 -529 0
-1020 387 529 0
1020 -387 529 0
-1020 -387 -529 0
387 -1021 0
1020 -1021 0
-387 -1020 1021 0
245 -1022 0
103 -1022 0
-245 -103 1022 0
-1021 672 0
-1022 672 0
1021 1022 -672 0
104 246 -1023 0
-104 246 1023 0
104 -246 1023 0
-104 -246 -1023 0
1023 388 -530 0
-1023 388 530 0
1023 -388 530 0
-1023 -388 -530 0
388 -1024 0
1023 -1024 0
-388 -1023 1024 0
246 -1025 0
104 -1025 0
-246 -104 1025 0
-1024 673 0
-1025 673 0
1024 1025 -673 0
105 247 -1026 0
-105 247 1026 0
105 -247 1026 0
-105 -247 -1026 0
1026 389 -531 0
-1026 389 531 0
1026 -389 531 0
-1026 -389 -531 0
389 -1027 0
1026 -1027 0
-389 -1026 1027 0
247 -1028 0
105 -1028 0
-247 -105 1028 0
-1027 674 0
-1028 674 0
1027 1028 -674 0
106 248 -1029 0
-106 248 1029 0
106 -248 1029 0
-106 -248 -1029 0
1029 390 -532 0
-1029 390 532 0
1029 -390 532 0
-1029 -390 -532 0
390 -1030 0
1029 -1030 0
-390 -1029 1030 0
248 -1031 0
106 -1031 0
-248 -106 1031 0
-1030 675 0
-1031 675 0
1030 1031 -675 0
107 249 -1032 0
-107 249 1032 0
107 -249 1032 0
-107 -249 -1032 0
1032 391 -533 0
-1032 391 533 0
1032 -391 533 0
-1032 -391 -533 0
391 -1033 0
1032 -1033 0
-391 -1032 1033 0
249 -1034 0
107 -1034 0
-249 -107 1034 0
-1033 676 0
-1034 676 0
1033 1034 -676 0
108 250 -1035 0
-108 250 1035 0
108 -250 1035 0
-108 -250 -1035 0
1035 392 -534 0
-1035 392 534 0
1035 -392 534 0
-1035 -392 -534 0
392 -1036 0
1035 -1036 0
-392 -1035 1036 0
250 -1037 0
108 -1037 0
-250 -108 1037 0
-1036 677 0
-1037 677 0
1036 1037 -677 0
109 251 -1038 0
-109 251 1038 0
109 -251 1038 0
-109 -251 -1038 0
1038 393 -535 0
-1038 393 535 0
1038 -393 535 0
-1038 -393 -535 0
393 -1039 0
1038 -1039 0
-393 -1038 1039 0
251 -1040 0
109 -1040 0
-251 -109 1040 0
-1039 678 0
-1040 678 0
1039 1040 -678 0
110 252 -1041 0
-110 252 1041 0
110 -252 1041 0
-110 -252 -1041 0
1041 394 -536 0
-1041 394 536 0
1041 -394 536 0
-1041 -394 -536 0
394 -1042 0
1041 -1042 0
-394 -1041 1042 0
252 -1043 0
110 -1043 0
-252 -110 1043 0
-1042 679 0
-1043 679 0
1042 1043 -679 0
111 253 -1044 0
-111 253 1044 0
111 -253 1044 0
-111 -253 -1044 0
1044 395 -537 0
-1044 395 537 0
1044 -395 537 0
-1044 -395 -537 0
395 -1045 0
1044 -1045 0
-395 -1044 1045 0
253 -1046 0
111 -1046 0
-253 -111 1046 0
-1045 680 0
-1046 680 0
1045 1046 -680 0
112 254 -1047 0
-112 254 1047 0
112 -254 1047 0
-112 -254 -1047 0
1047 396 -538 0
-1047 396 538 0
1047 -396 538 0
-1047 -396 -538 0
396 -1048 0
1047 -1048 0
-396 -1047 1048 0
254 -1049 0
112 -1049 0
-254 -112 1049 0
-1048 681 0
-1049 681 0
1048 1049 -681 0
113 255 -1050 0
-113 255 1050 0
113 -255 1050 0
-113 -255 -1050 0
1050 397 -539 0
-1050 397 539 0
1050 -397 539 0
-1050 -397 -539 0
397 -1051 0
1050 -1051 0
-397 -1050 1051 0
255 -1052 0
113 -1052 0
-255 -113 1052 0
-1051 682 0
-1052 682 0
1051 1052 -682 0
114 256 -1053 0
-114 256 1053 0
114 -256 1053 0
-114 -256 -1053 0
1053 398 -540 0
-1053 398 540 0
1053 -398 540 0
-1053 -398 -540 0
398 -1054 0
1053 -1054 0
-398 -1053 1054 0
256 -1055 0
114 -1055 0
-256 -114 1055 0
-1054 683 0
-1055 683 0
1054 1055 -683 0
115 257 -1056 0
-115 257 1056 0
115 -257 1056 0
-115 -257 -1056 0
1056 399 -541 0
-1056 399 541 0
1056 -399 541 0
-1056 -399 -541 0
399 -1057 0
1056 -1057 0
-399 -1056 1057 0
257 -1058 0
115 -1058 0
-257 -115 1058 0
-1057 684 0
-1058 684 0
1057 1058 -684 0
116 258 -1059 0
-116 258 1059 0
116 -258 1059 0
-116 -258 -1059 0
1059 400 -542 0
-1059 400 542 0
1059 -400 542 0
-1059 -400 -542 0
400 -1060 0
1059 -1060 0
-400 -1059 1060 0
258 -1061 0
116 -1061 0
-258 -116 1061 0
-1060 685 0
-1061 685 0
1060 1061 -685 0
117 259 -1062 0
-117 259 1062 0
117 -259 1062 0
-117 -259 -1062 0
1062 401 -543 0
-1062 401 543 0
1062 -401 543 0
-1062 -401 -543 0
401 -1063 0
1062 -1063 0
-401 -1062 1063 0
259 -1064 0
117 -1064 0
-259 -117 1064 0
-1063 686 0
-1064 686 0
1063 1064 -686 0
118 260 -1065 0
-118 260 1065 0
118 -260 1065 0
-118 -260 -1065 0
1065 402 -544 0
-1065 402 544 0
1065 -402 544 0
-1065 -402 -544 0
402 -1066 0
1065 -1066 0
-402 -1065 1066 0
260 -1067 0
118 -1067 0
-260 -118 1067 0
-1066 687 0
-1067 687 0
1066 1067 -687 0
119 261 -1068 0
-119 261 1068 0
119 -261 1068 0
-119 -261 -1068 0
1068 403 -545 0
-1068 403 545 0
1068 -403 545 0
-1068 -403 -545 0
403 -1069 0
1068 -1069 0
-403 -1068 1069 0
261 -1070 0
119 -1070 0
-261 -119 1070 0
-1069 688 0
-1070 688 0
1069 1070 -688 0
120 262 -1071 0
-120 262 1071 0
120 -262 1071 0
-120 -262 -1071 0
1071 404 -546 0
-1071 404 546 0
1071 -404 546 0
-1071 -404 -546 0
404 -1072 0
1071 -1072 0
-404 -1071 1072 0
262 -1073 0
120 -1073 0
-262 -120 1073 0
-1072 689 0
-1073 689 0
1072 1073 -689 0
121 263 -1074 0
-121 263 1074 0
121 -263 1074 0
-121 -263 -1074 0
1074 405 -547 0
-1074 405 547 0
1074 -405 547 0
-1074 -405 -547 0
405 -1075 0
1074 -1075 0
-405 -1074 1075 0
263 -1076 0
121 -1076 0
-263 -121 1076 0
-1075 690 0
-1076 690 0
1075 1076 -690 0
122 264 -1077 0
-122 264 1077 0
122 -264 1077 0
-122 -264 -1077 0
1077 406 -548 0
-1077 406 548 0
1077 -406 548 0
-1077 -406 -548 0
406 -1078 0
1077 -1078 0
-406 -1077 1078 0
264 -1079 0
122 -1079 0
-264 -122 1079 0
-1078 691 0
-1079 691 0
1078 1079 -691 0
123 265 -1080 0
-123 265 1080 0
123 -265 1080 0
-123 -265 -1080 0
1080 407 -549 0
-1080 407 549 0
1080 -407 549 0
-1080 -407 -549 0
407 -1081 0
1080 -1081 0
-407 -1080 1081 0
265 -1082 0
123 -1082 0
-265 -123 1082 0
-1081 692 0
-1082 692 0
1081 1082 -692 0
124 266 -1083 0
-124 266 1083 0
124 -266 1083 0
-124 -266 -1083 0
1083 408 -550 0
-1083 408 550 0
1083 -408 550 0
-1083 -408 -550 0
408 -1084 0
1083 -1084 0
-408 -1083 1084 0
266 -1085 0
124 -1085 0
-266 -124 1085 0
-1084 693 0
-1085 693 0
1084 1085 -693 0
125 267 -1086 0
-125 267 1086 0
125 -267 1086 0
-125 -267 -1086 0
1086 409 -551 0
-1086 409 551 0
1086 -409 551 0
-1086 -409 -551 0
409 -1087 0
1086 -1087 0
-409 -1086 1087 0
267 -1088 0
125 -1088 0
-267 -125 1088 0
-1087 694 0
-1088 694 0
1087 1088 -694 0
126 268 -1089 0
-126 268 1089 0
126 -268 1089 0
-126 -268 -1089 0
1089 410 -552 0
-1089 410 552 0
1089 -410 552 0
-1089 -410 -552 0
410 -1090 0
1089 -1090 0
-410 -1089 1090 0
268 -1091 0
126 -1091 0
-268 -126 1091 0
-1090 695 0
-1091 695 0
1090 1091 -695 0
127 269 -1092 0
-127 269 1092 0
127 -269 1092 0
-127 -269 -1092 0
1092 411 -553 0
-1092 411 553 0
1092 -411 553 0
-1092 -411 -553 0
411 -1093 0
1092 -1093 0
-411 -1092 1093 0
269 -1094 0
127 -1094 0
-269 -127 1094 0
-1093 696 0
-1094 696 0
1093 1094 -696 0
128 270 -1095 0
-128 270 1095 0
128 -270 1095 0
-128 -270 -1095 0
1095 412 -554 0
-1095 412 554 0
1095 -412 554 0
-1095 -412 -554 0
412 -1096 0
1095 -1096 0
-412 -1095 1096 0
270 -1097 0
128 -1097 0
-270 -128 1097 0
-1096 697 0
-1097 697 0
1096 1097 -697 0
129 271 -1098 0
-129 271 1098 0
129 -271 1098 0
-129 -271 -1098 0
1098 413 -555 0
-1098 413 555 0
1098 -413 555 0
-1098 -413 -555 0
413 -1099 0
1098 -1099 0
-413 -1098 1099 0
271 -1100 0
129 -1100 0
-271 -129 1100 0
-1099 698 0
-1100 698 0
1099 1100 -698 0
130 272 -1101 0
-130 272 1101 0
130 -272 1101 0
-130 -272 -1101 0
1101 414 -556 0
-1101 414 556 0
1101 -414 556 0
-1101 -414 -556 0
414 -1102 0
1101 -1102 0
-414 -1101 1102 0
272 -1103 0
130 -1103 0
-272 -130 1103 0
-1102 699 0
-1103 699 0
1102 1103 -699 0
131 273 -1104 0
-131 273 1104 0
131 -273 1104 0
-131 -273 -1104 0
1104 415 -557 0
-1104 415 557 0
1104 -415 557 0
-1104 -415 -557 0
415 -1105 0
1104 -1105 0
-415 -1104 1105 0
273 -1106 0
131 -1106 0
-273 -131 1106 0
-1105 700 0
-1106 700 0
1105 1106 -700 0
132 274 -1107 0
-132 274 1107 0
132 -274 1107 0
-132 -274 -1107 0
1107 416 -558 0
-1107 416 558 0
1107 -416 558 0
-1107 -416 -558 0
416 -1108 0
1107 -1108 0
-416 -1107 1108 0
274 -1109 0
132 -1109 0
-274 -132 1109 0
-1108 701 0
-1109 701 0
1108 1109 -701 0
133 275 -1110 0
-133 275 1110 0
133 -275 1110 0
-133 -275 -1110 0
1110 417 -559 0
-1110 417 559 0
1110 -417 559 0
-1110 -417 -559 0
417 -1111 0
1110 -1111 0
-417 -1110 1111 0
275 -1112 0
133 -1112 0
-275 -133 1112 0
-1111 702 0
-1112 702 0
1111 1112 -702 0
134 276 -1113 0
-134 276 1113 0
134 -276 1113 0
-134 -276 -1113 0
1113 418 -560 0
-1113 418 560 0
1113 -418 560 0
-1113 -418 -560 0
418 -1114 0
1113 -1114 0
-418 -1113 1114 0
276 -1115 0
134 -1115 0
-276 -134 1115 0
-1114 703 0
-1115 703 0
1114 1115 -703 0
135 277 -1116 0
-135 277 1116 0
135 -277 1116 0
-135 -277 -1116 0
1116 419 -561 0
-1116 419 561 0
1116 -419 561 0
-1116 -419 -561 0
419 -1117 0
1116 -1117 0
-419 -1116 1117 0
277 -1118 0
135 -1118 0
-277 -135 1118 0
-1117 704 0
-1118 704 0
1117 1118 -704 0
136 278 -1119 0
-136 278 1119 0
136 -278 1119 0
-136 -278 -1119 0
1119 420 -562 0
-1119 420 562 0
1119 -420 562 0
-1119 -420 -562 0
420 -1120 0
1119 -1120 0
-420 -1119 1120 0
278 -1121 0
136 -1121 0
-278 -136 1121 0
-1120 705 0
-1121 705 0
1120 1121 -705 0
137 279 -1122 0
-137 279 1122 0
137 -279 1122 0
-137 -279 -1122 0
1122 421 -563 0
-1122 421 563 0
1122 -421 563 0
-1122 -421 -563 0
421 -1123 0
1122 -1123 0
-421 -1122 1123 0
279 -1124 0
137 -1124 0
-279 -137 1124 0
-1123 706 0
-1124 706 0
1123 1124 -706 0
138 280 -1125 0
-138 280 1125 0
138 -280 1125 0
-138 -280 -1125 0
1125 422 -564 0
-1125 422 564 0
1125 -422 564 0
-1125 -422 -564 0
422 -1126 0
1125 -1126 0
-422 -1125 1126 0
280 -1127 0
138 -1127 0
-280 -138 1127 0
-1126 707 0
-1127 707 0
1126 1127 -707 0
139 281 -1128 0
-139 281 1128 0
139 -281 1128 0
-139 -281 -1128 0
1128 423 -565 0
-1128 423 565 0
1128 -423 565 0
-1128 -423 -565 0
423 -1129 0
1128 -1129 0
-423 -1128 1129 0
281 -1130 0
139 -1130 0
-281 -139 1130 0
-1129 708 0
-1130 708 0
1129 1130 -708 0
140 282 -1131 0
-140 282 1131 0
140 -282 1131 0
-140 -282 -1131 0
1131 424 -566 0
-1131 424 566 0
1131 -424 566 0
-1131 -424 -566 0
424 -1132 0
1131 -1132 0
-424 -1131 1132 0
282 -1133 0
140 -1133 0
-282 -140 1133 0
-1132 709 0
-1133 709 0
1132 1133 -709 0
141 283 -1134 0
-141 283 1134 0
141 -283 1134 0
-141 -283 -1134 0
1134 425 -567 0
-1134 425 567 0
1134 -425 567 0
-1134 -425 -567 0
425 -1135 0
1134 -1135 0
-425 -1134 1135 0
283 -1136 0
141 -1136 0
-283 -141 1136 0
-1135 710 0
-1136 710 0
1135 1136 -710 0
142 284 -1137 0
-142 284 1137 0
142 -284 1137 0
-142 -284 -1137 0
1137 426 -568 0
-1137 426 568 0
1137 -426 568 0
-1137 -426 -568 0
426 -1138 0
1137 -1138 0
-426 -1137 1138 0
284 -1139 0
142 -1139 0
-284 -142 1139 0
-1138 711 0
-1139 711 0
1138 1139 -711 0
